





























































































14 48 6 41 
67 11 21 
17 34 58 24 
42 25 28 
63 18 16 46 
43 54 45 3 
4 39 5 40 
73 0 49 9 
71 36 56 
8 32 35 62 
1 15 70 74 
10 68 76 57 
64 2 52 33 
65 26 72 60 
69 31 50 
59 27 22 19 44 
75 13 38 
29 61 30 7 
20 51 12 66 
55 23 37 
53 47 
